\ LP format - for model browsing. Use MPS format to capture full model detail.
Minimize
  0.003 pane + 0.005 latte + 0.015 uova + 0.03 carne + 0.02 dolci
Subject To
 R0: 0.8 pane + 0.04 latte + 0.8 dolci >= 150
 R1: 0.1 latte + 0.5 uova + 0.6 carne >= 50
 R2: 0.14 pane + 0.6 latte + 0.35 uova + 0.2 carne + 0.2 dolci >= 70
 R3: pane <= 100
 R4: latte <= 120
 R5: uova <= 50
 R6: carne <= 300
 R7: dolci <= 100
Bounds
End
